% File represents an instance of a Composite Structure problem to be solved by a CP framework
% Created on 2025-03-26 10:41:21.462
T = 52;
n = 16;
m = 24;
edges = [(1, 2),
(5, 6),
(9, 10),
(13, 14),
(2, 3),
(6, 7),
(11, 10),
(15, 14),
(4, 3),
(7, 8),
(11, 12),
(16, 15),
(1, 5),
(5, 9),
(9, 13),
(2, 6),
(6, 10),
(10, 14),
(3, 7),
(11, 7),
(11, 15),
(4, 8),
(12, 8),
(16, 12)];
counts = [|4, 24, 4, 20,
|2, 22, 2, 20,
|2, 20, 2, 18,
|2, 20, 2, 20,
|2, 22, 2, 20,
|2, 18, 2, 20,
|2, 18, 2, 18,
|2, 18, 2, 16,
|2, 20, 2, 20,
|2, 16, 2, 20,
|2, 18, 2, 22,
|2, 18, 2, 18,
|2, 18, 2, 18,
|2, 14, 2, 16,
|2, 18, 2, 18,
|4, 18, 4, 20|];
